
Gurobi 10.0.3 (linux64, gurobi_cl) logging started Thu Nov  9 11:47:14 2023

Set parameter Username
Set parameter TimeLimit to value 3600
Set parameter LogFile to value "RCPSP_1009.log"
Set parameter Threads to value 32
Academic license - for non-commercial use only - expires 2024-10-30
Using license file /home/jrivera6/gurobi-licenses/v1003/compute-0-34/gurobi.lic

Gurobi Optimizer version 10.0.3 build v10.0.3rc0 (linux64)
Copyright (c) 2023, Gurobi Optimization, LLC

Read MPS format model from file RCPSP_1009.mps
Reading time = 0.28 seconds
RCPSP_1009: 42919 rows, 17020 columns, 142834 nonzeros

CPU model: Intel(R) Xeon(R) Gold 6130 CPU @ 2.10GHz, instruction set [SSE2|AVX|AVX2|AVX512]
Thread count: 32 physical cores, 32 logical processors, using up to 32 threads

Optimize a model with 42919 rows, 17020 columns and 142834 nonzeros
Model fingerprint: 0xbac482da
Variable types: 92 continuous, 16928 integer (16928 binary)
Coefficient statistics:
  Matrix range     [1e+00, 5e+02]
  Objective range  [1e+00, 1e+00]
  Bounds range     [1e+00, 1e+00]
  RHS range        [1e+00, 5e+02]
Presolve removed 8565 rows and 1854 columns (presolve time = 5s) ...
Presolve removed 12334 rows and 3369 columns
Presolve time: 6.27s
Presolved: 30585 rows, 13651 columns, 106137 nonzeros
Variable types: 91 continuous, 13560 integer (13560 binary)

Deterministic concurrent LP optimizer: primal and dual simplex (primal and dual model)
Showing first log only...

Root relaxation presolved: 30583 rows, 13653 columns, 106133 nonzeros


Root simplex log...

Iteration    Objective       Primal Inf.    Dual Inf.      Time
       0    9.4405206e+01   3.452311e-03   6.934962e+07      8s
    2769    9.4000000e+01   0.000000e+00   0.000000e+00      8s
    2769    9.4000000e+01   0.000000e+00   0.000000e+00      9s
Concurrent spin time: 1.25s

Solved with dual simplex (dual model)

Root relaxation: objective 9.400000e+01, 14409 iterations, 3.18 seconds (0.16 work units)
Total elapsed time = 13.56s
Total elapsed time = 17.07s

    Nodes    |    Current Node    |     Objective Bounds      |     Work
 Expl Unexpl |  Obj  Depth IntInf | Incumbent    BestBd   Gap | It/Node Time

     0     0   94.00000    0  248          -   94.00000      -     -   21s
     0     0   95.33333    0  912          -   95.33333      -     -   79s
     0     0   95.33333    0  786          -   95.33333      -     -   82s
     0     0   95.36265    0  762          -   95.36265      -     -   85s
     0     0   95.36265    0  757          -   95.36265      -     -   85s
     0     0   95.99140    0 1122          -   95.99140      -     -  126s
     0     0   95.99140    0  990          -   95.99140      -     -  132s
     0     0   95.99140    0  982          -   95.99140      -     -  132s
     0     0   96.00000    0 1026          -   96.00000      -     -  137s
     0     0   96.00000    0 1018          -   96.00000      -     -  138s
     0     0   96.00000    0 1531          -   96.00000      -     -  178s
     0     0   96.00000    0 1416          -   96.00000      -     -  182s
     0     0   96.00000    0 1380          -   96.00000      -     -  192s
     0     0   96.00000    0 1210          -   96.00000      -     -  194s
     0     0   96.00000    0 1259          -   96.00000      -     -  197s
     0     0   96.00000    0 1204          -   96.00000      -     -  268s
     0     0   96.00000    0 1155          -   96.00000      -     -  269s
     0     0   96.00000    0  323          -   96.00000      -     -  293s
     0     0   96.00000    0  421          -   96.00000      -     -  297s
     0     0   96.00000    0  460          -   96.00000      -     -  320s
     0     0   96.00000    0  606          -   96.00000      -     -  325s
     0     0   96.00000    0  604          -   96.00000      -     -  325s
     0     0   96.00000    0  319          -   96.00000      -     -  357s
     0     0   96.00000    0  685          -   96.00000      -     -  364s
     0     0   96.00000    0  669          -   96.00000      -     -  365s
     0     0   96.00000    0  361          -   96.00000      -     -  381s
     0     0   96.00000    0  937          -   96.00000      -     -  384s
     0     0   96.00000    0  933          -   96.00000      -     -  384s
     0     0   96.00000    0  852          -   96.00000      -     -  394s
     0     0   96.00000    0  714          -   96.00000      -     -  394s
     0     0   96.00000    0  799          -   96.00000      -     -  400s
     0     0   96.00000    0  782          -   96.00000      -     -  401s
     0     0   96.00000    0  777          -   96.00000      -     -  401s
     0     0   96.00000    0  283          -   96.00000      -     -  413s
     0     0   96.00000    0  566          -   96.00000      -     -  416s
     0     0   96.00000    0  564          -   96.00000      -     -  416s
     0     0   96.00000    0  319          -   96.00000      -     -  430s
     0     0   96.00000    0  315          -   96.00000      -     -  430s
     0     0   96.00000    0 1228          -   96.00000      -     -  434s
     0     0   96.00000    0  330          -   96.00000      -     -  444s
     0     0   96.00000    0  330          -   96.00000      -     -  447s
     0     2   96.00000    0  273          -   96.00000      -     -  476s
     1     4   96.00000    1  272          -   96.00000      -  4114  489s
     3     7   96.00000    2  239          -   96.00000      -  1750  496s
     7    13   96.00000    3  523          -   96.00000      -   878  510s
    14    17   96.00000    4  723          -   96.00000      -   970  521s
    27    31   96.00000    5  690          -   96.00000      -   740  531s
    44    57   96.00000    6  579          -   96.00000      -   536  548s
    75    86   96.00000    7  514          -   96.00000      -   512  558s
   107   111   96.00000    8  512          -   96.00000      -   441  562s
   139   136   96.00000    9  511          -   96.00000      -   344  566s
   171   164  101.00000   10  494          -   96.00000      -   286  575s
   203   189  101.00000   11  492          -   96.00000      -   251  583s
   237   219  101.00000   12  490          -   96.00000      -   226  587s
   274   257  101.00000   13  487          -   96.00000      -   198  591s
   315   298  101.00000   14  478          -   96.00000      -   175  598s
   360   340  101.00000   15  478          -   96.00000      -   155  608s
   405   376  101.00000   16  475          -   96.00000      -   142  617s
   441   421  101.00000   17  503          -   96.00000      -   136  623s
   486   462  101.00000   18  490          -   96.00000      -   126  627s
   528   507  101.00000   19  490          -   96.00000      -   118  634s
   575   551  101.00000   20  489          -   96.00000      -   110  638s
   621   598  101.00000   21  489          -   96.00000      -   103  647s
   669   647  101.00000   22  485          -   96.00000      -  97.8  654s
   718   704  101.00000   23  485          -   96.00000      -  93.2  659s
   778   760  101.00000   24  491          -   96.00000      -  87.7  668s
   838   814  101.00000   25  491          -   96.00000      -  83.4  675s
   895   876  101.00000   26  481          -   96.00000      -  81.2  687s
   970   933  101.00000   28  483          -   96.00000      -  77.5  696s
  1036  1019  101.00000   29  480          -   96.00000      -  76.8  701s
  1133  1151  101.00000   31  480          -   96.00000      -  72.2  709s
  1278  1302  101.00000   32  482          -   96.00000      -  67.2  717s
  1443  1480  101.00000   36  494          -   96.00000      -  62.7  748s
  1640  1662  101.00000   38  516          -   96.00000      -  59.7  758s
  1837  1840  101.00000   39  500          -   96.00000      -  57.0  770s
  2047  2024  101.00000   40  481          -   96.00000      -  54.3  921s
  2273  2136  101.00000   42  587          -   96.00000      -  53.4  942s
  2401  2293  101.00000   43  575          -   96.00000      -  54.9  968s
  2594  2437  103.33333   44  548          -   96.00000      -  54.1 1143s
  2797  2583  101.00000   44  607          -   96.00000      -  54.3 1168s
  2967  2788  101.00000   45  656          -   96.00000      -  55.4 1192s
  3199  3098  101.00000   46  631          -   96.00000      -  54.2 1422s
  3537  3380  101.00000   47  641          -   96.00000      -  52.1 1643s
  3729  3380  108.00948   91  650          -   96.00000      -  51.9 1650s
  3872  3636  101.00000   48  601          -   96.00000      -  51.3 1944s
  3905  3636  105.00000   91  646          -   96.00000      -  52.0 1946s
  4179  3875  101.00000   49  594          -   96.00000      -  50.7 2192s
  4471  4109  101.00000   52  677          -   96.00000      -  50.9 2485s
  4767  4367  101.00000   53  645          -   96.00000      -  51.4 2734s
  5096  4646  101.00000   54  622          -   96.00000      -  51.2 3410s
  5432  4705  107.00000  132  657          -   96.00000      -  51.4 3747s

Cutting planes:
  Gomory: 14
  Lift-and-project: 1
  Cover: 226
  Implied bound: 173
  Clique: 18
  MIR: 1602
  StrongCG: 35
  Inf proof: 4
  Zero half: 2
  RLT: 1127
  Relax-and-lift: 105

Explored 5519 nodes (420384 simplex iterations) in 4069.20 seconds (47.28 work units)
Thread count was 32 (of 32 available processors)

Solution count 0

Time limit reached
Best objective -, best bound 9.600000000000e+01, gap -

Unable to retrieve attribute 'X'

